c FILE /home/rafael/Documents/HappySet/MIHS/inputs/happygen/output/graph_scale_free_k4_p0.5_v50_20241127_082433.txt
c SOURCE This is a scale-free graph formed for the happy graph colouring problem.
c DESCRIPTION It was generated using the problem generator of Rhyd Lewis
c
c GRAPH STATS
c Seed                             = 665435860
c Number of Nodes                  = 50
c Number of colours k              = 4
c Number of pre-assignments        = 25
c Number of links per new node     = 5
c Density                          = 0.191837
c 
c The degrees of nodes 1 to 50, respectively, are as follows 
c [27, 20, 19, 19, 18, 18, 17, 17, 17, 15, 15, 13, 12, 11, 11, 10, 9, 9, 9, 9, 8, 8, 7, 7, 7, 7, 
c  7, 7, 6, 6, 6, 6, 6, 6, 6, 5, 5, 5, 5, 5, 5, 5, 5, 5, 5, 5, 5, 5, 5, 5] 
c  
p edge 50 235 4
e 1 2
e 1 3
e 1 4
e 1 5
e 1 7
e 1 8
e 1 9
e 1 10
e 1 13
e 1 14
e 1 17
e 1 21
e 1 23
e 1 24
e 1 25
e 1 26
e 1 28
e 1 29
e 1 32
e 1 34
e 1 36
e 1 38
e 1 39
e 1 42
e 1 43
e 1 44
e 1 49
e 2 3
e 2 5
e 2 6
e 2 7
e 2 8
e 2 11
e 2 14
e 2 15
e 2 18
e 2 19
e 2 21
e 2 23
e 2 25
e 2 28
e 2 30
e 2 33
e 2 44
e 2 47
e 2 50
e 3 4
e 3 5
e 3 6
e 3 7
e 3 8
e 3 10
e 3 12
e 3 15
e 3 17
e 3 19
e 3 22
e 3 25
e 3 29
e 3 30
e 3 32
e 3 40
e 3 45
e 4 6
e 4 7
e 4 9
e 4 10
e 4 16
e 4 18
e 4 19
e 4 23
e 4 26
e 4 30
e 4 33
e 4 37
e 4 38
e 4 41
e 4 46
e 4 48
e 4 49
e 5 6
e 5 7
e 5 8
e 5 10
e 5 11
e 5 13
e 5 17
e 5 18
e 5 25
e 5 28
e 5 31
e 5 32
e 5 36
e 5 43
e 5 45
e 6 7
e 6 9
e 6 13
e 6 15
e 6 17
e 6 24
e 6 31
e 6 33
e 6 34
e 6 36
e 6 38
e 6 39
e 6 45
e 6 47
e 7 8
e 7 10
e 7 11
e 7 12
e 7 14
e 7 17
e 7 19
e 7 20
e 7 39
e 7 46
e 7 48
e 8 11
e 8 12
e 8 14
e 8 16
e 8 17
e 8 23
e 8 24
e 8 25
e 8 35
e 8 37
e 8 40
e 8 49
e 9 13
e 9 14
e 9 24
e 9 26
e 9 27
e 9 30
e 9 31
e 9 36
e 9 37
e 9 38
e 9 43
e 9 44
e 9 48
e 9 50
e 10 11
e 10 12
e 10 13
e 10 14
e 10 15
e 10 18
e 10 20
e 10 24
e 10 36
e 10 41
e 11 16
e 11 27
e 11 30
e 11 33
e 11 38
e 11 39
e 11 40
e 11 43
e 11 48
e 11 50
e 12 14
e 12 15
e 12 16
e 12 20
e 12 21
e 12 27
e 12 28
e 12 31
e 12 49
e 13 17
e 13 18
e 13 22
e 13 29
e 13 37
e 13 45
e 13 50
e 14 17
e 14 31
e 14 40
e 14 44
e 15 19
e 15 21
e 15 23
e 15 32
e 15 41
e 15 42
e 16 23
e 16 27
e 16 33
e 16 34
e 16 35
e 16 47
e 17 20
e 18 20
e 18 21
e 18 22
e 18 44
e 19 27
e 19 29
e 19 32
e 19 34
e 20 29
e 20 45
e 20 46
e 20 49
e 21 22
e 21 26
e 21 41
e 22 25
e 22 28
e 22 42
e 22 48
e 23 42
e 24 26
e 24 37
e 25 42
e 26 40
e 26 47
e 27 34
e 27 46
e 28 35
e 28 43
e 29 39
e 30 47
e 31 35
e 32 41
e 33 50
e 34 35
e 35 46
n 6 1
n 9 1
n 10 1
n 13 1
n 16 3
n 18 1
n 19 4
n 21 1
n 23 3
n 24 1
n 25 3
n 31 1
n 32 4
n 36 1
n 37 1
n 38 1
n 39 1
n 40 2
n 42 3
n 44 1
n 45 1
n 46 3
n 48 1
n 49 3
n 50 1
